NAME: ACTUAL_TOURS/amz0442
TYPE: TOUR
COMMENT: RouteID_2e72366e-3852-4f3d-a4f1-e04a13712e2a
DIMENSION: 154
TOUR_SECTION
74
53
20
150
75
8
102
18
5
132
15
101
133
31
68
22
4
105
52
134
95
29
76
47
54
49
143
3
41
11
123
129
12
37
127
88
138
100
58
2
122
65
93
85
148
131
78
73
43
32
36
10
30
55
69
117
19
115
120
64
139
51
7
84
62
13
70
99
110
136
94
46
6
81
141
87
108
135
39
33
147
104
67
124
9
103
92
61
50
146
98
57
21
153
26
130
72
126
44
35
56
23
106
91
96
111
113
112
16
140
114
45
142
109
77
119
83
89
151
24
42
25
1
125
144
152
149
34
79
59
97
154
40
38
128
116
28
48
14
137
86
27
80
60
121
118
17
63
90
82
107
145
66
71
-1
EOF
